1049
1035
1035
1010
1041
1041
1000
1000
964
1000
1000
1000
1000
1045
1002
1002
1002
1002
1002
1002
1023
1054
1021
967
1026
973
973
973
1011
986
1022
958
926
926
940
940
1022
932
1022
1022
1024
1024
1000
963
939
963
963
1000
1000
1024
1024
1024
1024
1024
1013
935
935
928
928
928
928
981
981
981
925
925
925
925
908
908
908
945
912
912
912
952
952
826
826
826
826
946
857
857
948
940
1024
985
905
991
926
977
962
977
1009
1009
982
989
999
1025
1023
1023
1023
1014
980
850
850
963
939
831
831
831
831
831
831
831
831
895
895
917
917
917
937
850
891
891
891
809
939
932
932
895
922
927
927
838
838
838
947
905
905
969
979
979
1003
920
920
920
920
920
956
956
885
885
885
901
901
885
885
1012
941
964
964
964
963
963
931
963
961
961
974
974
939
865
865
882
882
882
882
738
968
867
867
941
872
872
933
933
840
857
857
826
826
899
955
955
925
930
935
935
922
922
898
923
951
884
958
958
943
943
943
943
952
960
960
947
864
864
864
864
864
864
864
864
864
864
864
961
961
961
928
928
926
926
917
960
897
897
897
886
883
930
827
810
827
844
883
852
883
851
689
883
866
866
857
866
866
866
866
929
929
929
929
917
940
936
922
922
885
910
910
910
880
880
878
867
880
880
880
877
877
915
927
927
927
853
798
798
798
798
910
910
910
910
897
955
955
955
955
986
974
974
906
959
959
959
975
904
963
960
960
874
849
849
810
810
849
891
873
873
873
873
873
943
943
943
943
943
927
948
948
901
916
923
939
907
907
907
907
907
907
915
945
896
972
895
895
895
895
923
932
897
897
897
897
897
946
995
895
927
927
927
927
927
927
868
868
868
868
790
789
789
863
863
863
863
868
880
832
832
832
832
925
925
855
855
925
943
952
955
955
955
965
866
866
866
866
866
866
872
923
923
912
899
938
879
879
879
879
799
799
799
799
756
756
783
730
821
818
725
815
821
819
819
819
901
881
881
881
881
881
881
884
884
884
884
840
873
884
906
795
795
806
806
818
818
875
875
858
878
878
869
809
835
824
867
867
867
867
789
789
789
867
781
867
810
824
766
795
796
789
789
762
789
830
830
830
830
849
846
818
818
802
780
742
742
742
742
744
817
817
738
738
738
738
738
738
738
738
738
738
758
796
775
775
775
775
775
746
746
746
746
746
746
799
746
746
824
824
776
776
730
730
730
730
776
776
776
776
776
712
712
670
670
670
670
670
670
670
712
712
712
749
777
790
751
751
751
660
660
733
582
582
582
582
582
582
582
582
582
582
582
582
582
677
671
671
652
671
671
671
628
628
628
628
628
628
590
684
690
690
671
690
604
604
604
680
680
658
658
658
643
658
652
665
665
665
665
665
665
688
688
622
688
688
677
692
692
689
689
689
693
611
611
545
545
545
545
545
545
545
545
545
545
545
545
545
545
545
653
700
698
698
698
698
660
660
660
714
733
740
740
738
679
652
652
633
633
679
574
684
684
635
614
635
647
702
655
658
658
658
648
648
648
648
636
636
636
636
636
636
670
667
667
631
631
631
667
676
681
688
695
698
708
708
674
674
699
673
673
673
673
673
604
604
604
604
604
604
604
604
525
604
549
549
549
549
549
549
549
549
549
549
549
549
595
494
494
494
494
494
494
494
494
541
541
541
541
541
541
541
541
551
551
551
551
551
551
544
544
538
538
577
584
536
536
536
536
503
503
596
596
596
627
627
572
585
585
585
585
585
556
556
556
556
484
484
484
484
484
484
484
484
484
484
484
534
534
534
534
534
534
527
566
558
559
559
566
566
566
547
566
480
480
480
480
499
499
499
499
499
468
468
468
516
461
461
457
457
457
457
457
457
457
457
463
428
466
466
491
491
486
443
447
457
491
491
491
491
450
473
473
398
398
398
398
398
474
474
474
474
474
474
474
474
441
474
474
474
489
489
489
489
492
492
474
474
438
438
425
425
447
447
477
477
394
394
394
394
394
460
523
515
502
499
455
455
452
452
426
426
426
426
415
415
455
456
456
482
482
482
475
475
455
426
426
426
426
426
426
426
447
412
412
412
442
442
442
450
450
493
481
412
412
412
412
412
412
442
442
424
424
424
424
424
424
424
424
424
424
424
424
424
424
424
424
363
363
363
363
363
363
363
363
363
363
363
363
363
363
363
363
363
363
363
363
363
387
382
382
349
349
349
349
349
349
382
382
382
382
382
382
382
382
382
382
382
382
382
382
382
382
382
382
379
377
379
379
379
366
363
379
379
378
377
341
341
346
346
341
346
346
346
346
346
346
352
346
352
346
346
346
346
346
346
346
346
352
352
352
352
346
346
346
346
346
346
346
346
346
346
346
346
346
346
346
346
346
346
346
346
352
352
352
352
352
352
352
352
352
352
352
352
352
352
352
352
352
352
352
352
352
352
352
352
352
352
352
352
352
352
352
352
352
352
352
352
352
352
352
352
352
352
352
352
352
352
352
352
352
352
352
352
352
352
352
352
352
352
352
352
352
352
352
352
352
352
352
352
352
350
352
352
352
352
352
352
352
352
352
352
352
352
352
352
352
352
352
352
352
352
352
347
347
347
352
352
347
352
352
352
352
352
352
352
352
352
347
352
347
347
347
342
347
347
352
352
352
352
352
352
352
352
347
347
352
352
352
352
352
347
352
347
352
352
352
352
352
352
352
352
352
352
352
352
352
352
352
352
352
352
352
352
352
352
352
352
352
352
352
352
352
352
352
352
352
352
352
352
352
352
352
352
352
361
361
361
361
352
352
352
352
352
352
352
352
352
352
352
361
352
347
352
352
352
352
352
347
352
352
352
352
352
352
352
347
347
347
347
347
347
347
361
352
361
361
361
361
361
352
352
352
352
352
352
361
361
361
361
361
361
361
361
361
361
361
361
352
361
361
361
361
361
352
361
361
361
361
361
361
361
361
361
361
361
361
352
361
361
361
361
347
352
352
352
361
361
352
352
352
352
352
352
352
352
352
347
347
361
361
361
367
367
367
367
373
373
361
361
361
361
361
361
361
361
361
363
361
361
361
361
361
361
361
361
361
361
361
361
361
347
361
347
347
347
361
361
361
361
361
361
347
347
347
347
361
347
347
347
347
347
347
347
347
347
361
361
347
361
361
361
361
361
361
361
361
361
361
361
361
361
361
361
361
347
347
347
347
347
347
347
347
347
347
347
347
347
347
347
347
347
367
367
367
367
367
367
367
367
367
367
367
367
347
347
347
347
347
367
347
347
347
347
347
347
347
347
347
347
347
347
367
367
367
367
367
367
367
367
367
367
367
367
367
367
367
373
373
373
373
373
373
373
373
373
373
382
373
373
373
373
373
373
373
373
373
373
368
373
373
373
373
373
373
373
373
367
367
367
373
373
361
361
361
373
373
373
373
373
373
373
373
373
373
373
373
373
373
373
373
373
373
373
373
373
373
373
373
373
373
367
367
367
367
367
367
367
367
367
367
382
382
382
382
382
382
382
382
382
373
373
373
373
373
371
373
373
373
373
373
373
373
373
382
382
382
382
382
382
382
382
382
382
382
382
367
367
367
382
382
382
363
367
367
367
367
367
367
367
367
367
367
367
367
367
367
367
367
367
367
367
367
367
367
367
367
367
367
367
367
367
367
367
367
367
367
367
367
367
367
367
367
367
367
367
367
367
382
382
373
373
373
373
373
373
382
382
382
382
382
382
382
382
367
367
382
373
373
373
373
373
373
373
373
373
373
373
367
367
367
367
367
367
367
367
367
367
367
367
367
367
367
367
367
367
367
367
373
373
373
367
373
373
373
373
373
373
373
373
373
373
373
373
373
373
373
373
373
367
367
367
367
367
367
367
367
367
367
367
367
367
373
373
373
373
373
373
373
373
373
373
367
367
373
373
373
373
373
373
373
373
373
373
373
373
373
373
373
373
373
373
373
373
373
373
373
373
373
373
373
373
373
373
373
373
373
373
373
373
373
373
373
373
373
373
373
373
373
373
373
373
373
373
373
373
373
361
373
373
373
373
373
373
373
373
373
373
373
373
373
373
363
373
373
373
373
373
373
373
373
373
373
373
373
373
373
373
373
373
373
373
373
373
373
373
373
373
373
373
373
373
373
373
373
373
373
373
373
373
373
373
373
373
373
373
373
373
363
367
367
367
367
367
367
367
367
367
367
373
373
373
373
373
373
373
364
364
364
364
373
373
373
373
373
373
367
367
373
373
373
373
373
373
373
373
373
373
373
373
373
373
373
373
373
373
373
373
373
373
373
373
373
373
373
373
373
373
373
373
373
373
373
373
373
373
373
373
373
373
373
373
367
367
367
367
367
367
367
367
367
367
367
367
367
367
367
367
367
367
367
373
373
364
367
367
367
367
373
373
368
373
373
373
363
363
373
373
373
373
373
373
373
373
373
373
373
373
373
373
373
373
373
373
373
373
363
363
363
363
363
363
363
363
363
361
363
363
363
363
363
363
363
363
363
363
363
363
363
363
363
363
363
363
363
363
363
363
363
363
363
363
363
363
363
363
363
363
363
363
363
